Problem:    Ordini3
Rows:       52
Columns:    121 (100 integer, 100 binary)
Non-zeros:  811
Status:     INTEGER OPTIMAL
Objective:  z1 = 73 (MINimum)

   No.   Row name        Activity     Lower bound   Upper bound
------ ------------    ------------- ------------- -------------
     1 AssegnaOrdini[1]
                                   1             1             = 
     2 AssegnaOrdini[2]
                                   1             1             = 
     3 AssegnaOrdini[3]
                                   1             1             = 
     4 AssegnaOrdini[4]
                                   1             1             = 
     5 AssegnaOrdini[5]
                                   1             1             = 
     6 AssegnaOrdini[6]
                                   1             1             = 
     7 AssegnaOrdini[7]
                                   1             1             = 
     8 AssegnaOrdini[8]
                                   1             1             = 
     9 AssegnaOrdini[9]
                                   1             1             = 
    10 AssegnaOrdini[10]
                                   1             1             = 
    11 AssegnaPosizioni[1]
                                   1             1             = 
    12 AssegnaPosizioni[2]
                                   1             1             = 
    13 AssegnaPosizioni[3]
                                   1             1             = 
    14 AssegnaPosizioni[4]
                                   1             1             = 
    15 AssegnaPosizioni[5]
                                   1             1             = 
    16 AssegnaPosizioni[6]
                                   1             1             = 
    17 AssegnaPosizioni[7]
                                   1             1             = 
    18 AssegnaPosizioni[8]
                                   1             1             = 
    19 AssegnaPosizioni[9]
                                   1             1             = 
    20 AssegnaPosizioni[10]
                                   1             1             = 
    21 Start[1]                    0            -0             = 
    22 Start[2]                    0            -0             = 
    23 Start[3]                    0            -0             = 
    24 Start[4]                    0            -0             = 
    25 Start[5]                    0            -0             = 
    26 Start[6]                    0            -0             = 
    27 Start[7]                    0            -0             = 
    28 Start[8]                    0            -0             = 
    29 Start[9]                    0            -0             = 
    30 Start[10]                   0            -0             = 
    31 Tardiness[1]               32            -0               
    32 Tardiness[2]               20            -0               
    33 Tardiness[3]                0            -0               
    34 Tardiness[4]                1            -0               
    35 Tardiness[5]                4            -0               
    36 Tardiness[6]                0            -0               
    37 Tardiness[7]                1            -0               
    38 Tardiness[8]                7            -0               
    39 Tardiness[9]                0            -0               
    40 Tardiness[10]
                                   0            -0               
    41 z1                         73                             
    42 z2                         53                             
    43 MaxTardiness[1]
                                  53            -0               
    44 MaxTardiness[2]
                                  53            -0               
    45 MaxTardiness[3]
                                  49            -0               
    46 MaxTardiness[4]
                                  53            -0               
    47 MaxTardiness[5]
                                  53            -0               
    48 MaxTardiness[6]
                                  52            -0               
    49 MaxTardiness[7]
                                  53            -0               
    50 MaxTardiness[8]
                                  53            -0               
    51 MaxTardiness[9]
                                   0            -0               
    52 MaxTardiness[10]
                                  38            -0               

   No. Column name       Activity     Lower bound   Upper bound
------ ------------    ------------- ------------- -------------
     1 y[1,1]       *              0             0             1 
     2 y[1,2]       *              0             0             1 
     3 y[1,3]       *              1             0             1 
     4 y[1,4]       *              0             0             1 
     5 y[1,5]       *              0             0             1 
     6 y[1,6]       *              0             0             1 
     7 y[1,7]       *              0             0             1 
     8 y[1,8]       *              0             0             1 
     9 y[1,9]       *              0             0             1 
    10 y[1,10]      *              0             0             1 
    11 y[2,1]       *              0             0             1 
    12 y[2,2]       *              1             0             1 
    13 y[2,3]       *              0             0             1 
    14 y[2,4]       *              0             0             1 
    15 y[2,5]       *              0             0             1 
    16 y[2,6]       *              0             0             1 
    17 y[2,7]       *              0             0             1 
    18 y[2,8]       *              0             0             1 
    19 y[2,9]       *              0             0             1 
    20 y[2,10]      *              0             0             1 
    21 y[3,1]       *              0             0             1 
    22 y[3,2]       *              0             0             1 
    23 y[3,3]       *              0             0             1 
    24 y[3,4]       *              0             0             1 
    25 y[3,5]       *              0             0             1 
    26 y[3,6]       *              0             0             1 
    27 y[3,7]       *              0             0             1 
    28 y[3,8]       *              0             0             1 
    29 y[3,9]       *              1             0             1 
    30 y[3,10]      *              0             0             1 
    31 y[4,1]       *              0             0             1 
    32 y[4,2]       *              0             0             1 
    33 y[4,3]       *              0             0             1 
    34 y[4,4]       *              1             0             1 
    35 y[4,5]       *              0             0             1 
    36 y[4,6]       *              0             0             1 
    37 y[4,7]       *              0             0             1 
    38 y[4,8]       *              0             0             1 
    39 y[4,9]       *              0             0             1 
    40 y[4,10]      *              0             0             1 
    41 y[5,1]       *              1             0             1 
    42 y[5,2]       *              0             0             1 
    43 y[5,3]       *              0             0             1 
    44 y[5,4]       *              0             0             1 
    45 y[5,5]       *              0             0             1 
    46 y[5,6]       *              0             0             1 
    47 y[5,7]       *              0             0             1 
    48 y[5,8]       *              0             0             1 
    49 y[5,9]       *              0             0             1 
    50 y[5,10]      *              0             0             1 
    51 y[6,1]       *              0             0             1 
    52 y[6,2]       *              0             0             1 
    53 y[6,3]       *              0             0             1 
    54 y[6,4]       *              0             0             1 
    55 y[6,5]       *              1             0             1 
    56 y[6,6]       *              0             0             1 
    57 y[6,7]       *              0             0             1 
    58 y[6,8]       *              0             0             1 
    59 y[6,9]       *              0             0             1 
    60 y[6,10]      *              0             0             1 
    61 y[7,1]       *              0             0             1 
    62 y[7,2]       *              0             0             1 
    63 y[7,3]       *              0             0             1 
    64 y[7,4]       *              0             0             1 
    65 y[7,5]       *              0             0             1 
    66 y[7,6]       *              0             0             1 
    67 y[7,7]       *              1             0             1 
    68 y[7,8]       *              0             0             1 
    69 y[7,9]       *              0             0             1 
    70 y[7,10]      *              0             0             1 
    71 y[8,1]       *              0             0             1 
    72 y[8,2]       *              0             0             1 
    73 y[8,3]       *              0             0             1 
    74 y[8,4]       *              0             0             1 
    75 y[8,5]       *              0             0             1 
    76 y[8,6]       *              1             0             1 
    77 y[8,7]       *              0             0             1 
    78 y[8,8]       *              0             0             1 
    79 y[8,9]       *              0             0             1 
    80 y[8,10]      *              0             0             1 
    81 y[9,1]       *              0             0             1 
    82 y[9,2]       *              0             0             1 
    83 y[9,3]       *              0             0             1 
    84 y[9,4]       *              0             0             1 
    85 y[9,5]       *              0             0             1 
    86 y[9,6]       *              0             0             1 
    87 y[9,7]       *              0             0             1 
    88 y[9,8]       *              1             0             1 
    89 y[9,9]       *              0             0             1 
    90 y[9,10]      *              0             0             1 
    91 y[10,1]      *              0             0             1 
    92 y[10,2]      *              0             0             1 
    93 y[10,3]      *              0             0             1 
    94 y[10,4]      *              0             0             1 
    95 y[10,5]      *              0             0             1 
    96 y[10,6]      *              0             0             1 
    97 y[10,7]      *              0             0             1 
    98 y[10,8]      *              0             0             1 
    99 y[10,9]      *              0             0             1 
   100 y[10,10]     *              1             0             1 
   101 tard[1]                     0             0               
   102 tard[2]                     0             0               
   103 tard[3]                     4             0               
   104 tard[4]                     0             0               
   105 tard[5]                     0             0               
   106 tard[6]                     1             0               
   107 tard[7]                     0             0               
   108 tard[8]                     0             0               
   109 tard[9]                    53             0               
   110 tard[10]                   15             0               
   111 TMAX                       53             0               
   112 t[1]                        0             0               
   113 t[2]                       18             0               
   114 t[3]                       30             0               
   115 t[4]                       54             0               
   116 t[5]                       69             0               
   117 t[6]                       76             0               
   118 t[7]                       91             0               
   119 t[8]                       99             0               
   120 t[9]                      113             0               
   121 t[10]                     143             0               

Integer feasibility conditions:

KKT.PE: max.abs.err = 0.00e+000 on row 0
        max.rel.err = 0.00e+000 on row 0
        High quality

KKT.PB: max.abs.err = 1.42e-014 on row 33
        max.rel.err = 1.42e-014 on row 33
        High quality

End of output
